\ Generated by MPModelProtoExporter
\   Name             : 
\   Format           : Free
\   Constraints      : 112
\   Variables        : 56
\     Binary         : 38
\     Integer        : 0
\     Continuous     : 18
Maximize
 Obj: +3 x_video_analytics_A +3 x_video_analytics_B +3 x_video_analytics_C +1 x_telemetry_A +1 x_telemetry_B +1 x_telemetry_C +2 x_batch_job_A +2 x_batch_job_B +2 x_batch_job_C 
Subject to
 auto_c_000000000: +1 x_video_analytics_A +1 x_video_analytics_B +1 x_video_analytics_C +1 skip_video_analytics  = 1
 auto_c_000000001: +1 x_telemetry_A +1 x_telemetry_B +1 x_telemetry_C +1 skip_telemetry  = 1
 auto_c_000000002: +1 x_batch_job_A +1 x_batch_job_B +1 x_batch_job_C +1 skip_batch_job  = 1
 auto_c_000000003: +6 x_video_analytics_A +2 x_telemetry_A +10 x_batch_job_A  <= 12
 auto_c_000000004: +24 x_video_analytics_A +8 x_telemetry_A +32 x_batch_job_A  <= 48
 auto_c_000000005: +6 x_video_analytics_B +2 x_telemetry_B +10 x_batch_job_B  <= 8
 auto_c_000000006: +24 x_video_analytics_B +8 x_telemetry_B +32 x_batch_job_B  <= 40
 auto_c_000000007: +6 x_video_analytics_C +2 x_telemetry_C +10 x_batch_job_C  <= 20
 auto_c_000000008: +24 x_video_analytics_C +8 x_telemetry_C +32 x_batch_job_C  <= 80
 auto_c_000000009: -20 z_video_analytics_telemetry +1 f_0_A_B  <= 0
 auto_c_000000010: -20 z_video_analytics_telemetry +1 f_0_B_A  <= 0
 auto_c_000000011: -20 z_video_analytics_telemetry +1 f_0_B_C  <= 0
 auto_c_000000012: -20 z_video_analytics_telemetry +1 f_0_C_B  <= 0
 auto_c_000000013: -20 z_video_analytics_telemetry +1 f_0_A_C  <= 0
 auto_c_000000014: -20 z_video_analytics_telemetry +1 f_0_C_A  <= 0
 auto_c_000000015: -1 x_video_analytics_A -1 x_video_analytics_B -1 x_video_analytics_C +1 z_video_analytics_telemetry  <= 0
 auto_c_000000016: -1 x_telemetry_A -1 x_telemetry_B -1 x_telemetry_C +1 z_video_analytics_telemetry  <= 0
 auto_c_000000017: -1 x_video_analytics_A -1 x_video_analytics_B -1 x_video_analytics_C -1 x_telemetry_A -1 x_telemetry_B -1 x_telemetry_C +1 z_video_analytics_telemetry  >= -1
 auto_c_000000018: -1 z_video_analytics_telemetry +1 src_0_A  <= 0
 auto_c_000000019: -1 x_video_analytics_A +1 src_0_A  <= 0
 auto_c_000000020: -1 x_video_analytics_A -1 z_video_analytics_telemetry +1 src_0_A  >= -1
 auto_c_000000021: -1 z_video_analytics_telemetry +1 dst_0_A  <= 0
 auto_c_000000022: -1 x_telemetry_A +1 dst_0_A  <= 0
 auto_c_000000023: -1 x_telemetry_A -1 z_video_analytics_telemetry +1 dst_0_A  >= -1
 auto_c_000000024: +1 f_0_A_B -1 f_0_B_A +1 f_0_A_C -1 f_0_C_A -20 src_0_A +20 dst_0_A  = 0
 auto_c_000000025: -1 z_video_analytics_telemetry +1 src_0_B  <= 0
 auto_c_000000026: -1 x_video_analytics_B +1 src_0_B  <= 0
 auto_c_000000027: -1 x_video_analytics_B -1 z_video_analytics_telemetry +1 src_0_B  >= -1
 auto_c_000000028: -1 z_video_analytics_telemetry +1 dst_0_B  <= 0
 auto_c_000000029: -1 x_telemetry_B +1 dst_0_B  <= 0
 auto_c_000000030: -1 x_telemetry_B -1 z_video_analytics_telemetry +1 dst_0_B  >= -1
 auto_c_000000031: -1 f_0_A_B +1 f_0_B_A +1 f_0_B_C -1 f_0_C_B -20 src_0_B +20 dst_0_B  = 0
 auto_c_000000032: -1 z_video_analytics_telemetry +1 src_0_C  <= 0
 auto_c_000000033: -1 x_video_analytics_C +1 src_0_C  <= 0
 auto_c_000000034: -1 x_video_analytics_C -1 z_video_analytics_telemetry +1 src_0_C  >= -1
 auto_c_000000035: -1 z_video_analytics_telemetry +1 dst_0_C  <= 0
 auto_c_000000036: -1 x_telemetry_C +1 dst_0_C  <= 0
 auto_c_000000037: -1 x_telemetry_C -1 z_video_analytics_telemetry +1 dst_0_C  >= -1
 auto_c_000000038: -1 f_0_B_C +1 f_0_C_B -1 f_0_A_C +1 f_0_C_A -20 src_0_C +20 dst_0_C  = 0
 auto_c_000000039: -5 z_video_analytics_batch_job +1 f_1_A_B  <= 0
 auto_c_000000040: -5 z_video_analytics_batch_job +1 f_1_B_A  <= 0
 auto_c_000000041: -5 z_video_analytics_batch_job +1 f_1_B_C  <= 0
 auto_c_000000042: -5 z_video_analytics_batch_job +1 f_1_C_B  <= 0
 auto_c_000000043: -5 z_video_analytics_batch_job +1 f_1_A_C  <= 0
 auto_c_000000044: -5 z_video_analytics_batch_job +1 f_1_C_A  <= 0
 auto_c_000000045: -1 x_video_analytics_A -1 x_video_analytics_B -1 x_video_analytics_C +1 z_video_analytics_batch_job  <= 0
 auto_c_000000046: -1 x_batch_job_A -1 x_batch_job_B -1 x_batch_job_C +1 z_video_analytics_batch_job  <= 0
 auto_c_000000047: -1 x_video_analytics_A -1 x_video_analytics_B -1 x_video_analytics_C -1 x_batch_job_A -1 x_batch_job_B -1 x_batch_job_C +1 z_video_analytics_batch_job  >= -1
 auto_c_000000048: -1 z_video_analytics_batch_job +1 src_1_A  <= 0
 auto_c_000000049: -1 x_video_analytics_A +1 src_1_A  <= 0
 auto_c_000000050: -1 x_video_analytics_A -1 z_video_analytics_batch_job +1 src_1_A  >= -1
 auto_c_000000051: -1 z_video_analytics_batch_job +1 dst_1_A  <= 0
 auto_c_000000052: -1 x_batch_job_A +1 dst_1_A  <= 0
 auto_c_000000053: -1 x_batch_job_A -1 z_video_analytics_batch_job +1 dst_1_A  >= -1
 auto_c_000000054: +1 f_1_A_B -1 f_1_B_A +1 f_1_A_C -1 f_1_C_A -5 src_1_A +5 dst_1_A  = 0
 auto_c_000000055: -1 z_video_analytics_batch_job +1 src_1_B  <= 0
 auto_c_000000056: -1 x_video_analytics_B +1 src_1_B  <= 0
 auto_c_000000057: -1 x_video_analytics_B -1 z_video_analytics_batch_job +1 src_1_B  >= -1
 auto_c_000000058: -1 z_video_analytics_batch_job +1 dst_1_B  <= 0
 auto_c_000000059: -1 x_batch_job_B +1 dst_1_B  <= 0
 auto_c_000000060: -1 x_batch_job_B -1 z_video_analytics_batch_job +1 dst_1_B  >= -1
 auto_c_000000061: -1 f_1_A_B +1 f_1_B_A +1 f_1_B_C -1 f_1_C_B -5 src_1_B +5 dst_1_B  = 0
 auto_c_000000062: -1 z_video_analytics_batch_job +1 src_1_C  <= 0
 auto_c_000000063: -1 x_video_analytics_C +1 src_1_C  <= 0
 auto_c_000000064: -1 x_video_analytics_C -1 z_video_analytics_batch_job +1 src_1_C  >= -1
 auto_c_000000065: -1 z_video_analytics_batch_job +1 dst_1_C  <= 0
 auto_c_000000066: -1 x_batch_job_C +1 dst_1_C  <= 0
 auto_c_000000067: -1 x_batch_job_C -1 z_video_analytics_batch_job +1 dst_1_C  >= -1
 auto_c_000000068: -1 f_1_B_C +1 f_1_C_B -1 f_1_A_C +1 f_1_C_A -5 src_1_C +5 dst_1_C  = 0
 auto_c_000000069: -5 z_telemetry_video_analytics +1 f_2_A_B  <= 0
 auto_c_000000070: -5 z_telemetry_video_analytics +1 f_2_B_A  <= 0
 auto_c_000000071: -5 z_telemetry_video_analytics +1 f_2_B_C  <= 0
 auto_c_000000072: -5 z_telemetry_video_analytics +1 f_2_C_B  <= 0
 auto_c_000000073: -5 z_telemetry_video_analytics +1 f_2_A_C  <= 0
 auto_c_000000074: -5 z_telemetry_video_analytics +1 f_2_C_A  <= 0
 auto_c_000000075: -1 x_telemetry_A -1 x_telemetry_B -1 x_telemetry_C +1 z_telemetry_video_analytics  <= 0
 auto_c_000000076: -1 x_video_analytics_A -1 x_video_analytics_B -1 x_video_analytics_C +1 z_telemetry_video_analytics  <= 0
 auto_c_000000077: -1 x_video_analytics_A -1 x_video_analytics_B -1 x_video_analytics_C -1 x_telemetry_A -1 x_telemetry_B -1 x_telemetry_C +1 z_telemetry_video_analytics  >= -1
 auto_c_000000078: -1 z_telemetry_video_analytics +1 src_2_A  <= 0
 auto_c_000000079: -1 x_telemetry_A +1 src_2_A  <= 0
 auto_c_000000080: -1 x_telemetry_A -1 z_telemetry_video_analytics +1 src_2_A  >= -1
 auto_c_000000081: -1 z_telemetry_video_analytics +1 dst_2_A  <= 0
 auto_c_000000082: -1 x_video_analytics_A +1 dst_2_A  <= 0
 auto_c_000000083: -1 x_video_analytics_A -1 z_telemetry_video_analytics +1 dst_2_A  >= -1
 auto_c_000000084: +1 f_2_A_B -1 f_2_B_A +1 f_2_A_C -1 f_2_C_A -5 src_2_A +5 dst_2_A  = 0
 auto_c_000000085: -1 z_telemetry_video_analytics +1 src_2_B  <= 0
 auto_c_000000086: -1 x_telemetry_B +1 src_2_B  <= 0
 auto_c_000000087: -1 x_telemetry_B -1 z_telemetry_video_analytics +1 src_2_B  >= -1
 auto_c_000000088: -1 z_telemetry_video_analytics +1 dst_2_B  <= 0
 auto_c_000000089: -1 x_video_analytics_B +1 dst_2_B  <= 0
 auto_c_000000090: -1 x_video_analytics_B -1 z_telemetry_video_analytics +1 dst_2_B  >= -1
 auto_c_000000091: -1 f_2_A_B +1 f_2_B_A +1 f_2_B_C -1 f_2_C_B -5 src_2_B +5 dst_2_B  = 0
 auto_c_000000092: -1 z_telemetry_video_analytics +1 src_2_C  <= 0
 auto_c_000000093: -1 x_telemetry_C +1 src_2_C  <= 0
 auto_c_000000094: -1 x_telemetry_C -1 z_telemetry_video_analytics +1 src_2_C  >= -1
 auto_c_000000095: -1 z_telemetry_video_analytics +1 dst_2_C  <= 0
 auto_c_000000096: -1 x_video_analytics_C +1 dst_2_C  <= 0
 auto_c_000000097: -1 x_video_analytics_C -1 z_telemetry_video_analytics +1 dst_2_C  >= -1
 auto_c_000000098: -1 f_2_B_C +1 f_2_C_B -1 f_2_A_C +1 f_2_C_A -5 src_2_C +5 dst_2_C  = 0
 auto_c_000000099: +1 f_0_A_B +1 f_0_B_A +1 f_1_A_B +1 f_1_B_A +1 f_2_A_B +1 f_2_B_A  <= 80
 auto_c_000000100: +1 f_0_B_C +1 f_0_C_B +1 f_1_B_C +1 f_1_C_B +1 f_2_B_C +1 f_2_C_B  <= 50
 auto_c_000000101: +1 f_0_A_C +1 f_0_C_A +1 f_1_A_C +1 f_1_C_A +1 f_2_A_C +1 f_2_C_A  <= 40
 auto_c_000000102: -1 x_video_analytics_C +1 stay_video_analytics  <= 0
 auto_c_000000103: -1 x_video_analytics_A -1 x_video_analytics_B -1 x_video_analytics_C +1 stay_video_analytics  <= 0
 auto_c_000000104: -1 x_video_analytics_A -1 x_video_analytics_B -2 x_video_analytics_C +1 stay_video_analytics  >= -1
 auto_c_000000105: +1 move_video_analytics +1 stay_video_analytics  = 1
 auto_c_000000106: -1 x_telemetry_B +1 stay_telemetry  <= 0
 auto_c_000000107: -1 x_telemetry_A -1 x_telemetry_B -1 x_telemetry_C +1 stay_telemetry  <= 0
 auto_c_000000108: -1 x_telemetry_A -2 x_telemetry_B -1 x_telemetry_C +1 stay_telemetry  >= -1
 auto_c_000000109: +1 move_telemetry +1 stay_telemetry  = 1
 auto_c_000000110: +1 move_batch_job  = 0
 auto_c_000000111: +1 move_video_analytics +1 move_telemetry +1 move_batch_job  <= 1
Bounds
 0 <= x_video_analytics_A <= 1
 0 <= x_video_analytics_B <= 1
 0 <= x_video_analytics_C <= 1
 0 <= skip_video_analytics <= 1
 0 <= x_telemetry_A <= 1
 0 <= x_telemetry_B <= 1
 0 <= x_telemetry_C <= 1
 0 <= skip_telemetry <= 1
 0 <= x_batch_job_A <= 1
 0 <= x_batch_job_B <= 1
 0 <= x_batch_job_C <= 1
 0 <= skip_batch_job <= 1
 0 <= z_video_analytics_telemetry <= 1
 0 <= f_0_A_B
 0 <= f_0_B_A
 0 <= f_0_B_C
 0 <= f_0_C_B
 0 <= f_0_A_C
 0 <= f_0_C_A
 0 <= src_0_A <= 1
 0 <= dst_0_A <= 1
 0 <= src_0_B <= 1
 0 <= dst_0_B <= 1
 0 <= src_0_C <= 1
 0 <= dst_0_C <= 1
 0 <= z_video_analytics_batch_job <= 1
 0 <= f_1_A_B
 0 <= f_1_B_A
 0 <= f_1_B_C
 0 <= f_1_C_B
 0 <= f_1_A_C
 0 <= f_1_C_A
 0 <= src_1_A <= 1
 0 <= dst_1_A <= 1
 0 <= src_1_B <= 1
 0 <= dst_1_B <= 1
 0 <= src_1_C <= 1
 0 <= dst_1_C <= 1
 0 <= z_telemetry_video_analytics <= 1
 0 <= f_2_A_B
 0 <= f_2_B_A
 0 <= f_2_B_C
 0 <= f_2_C_B
 0 <= f_2_A_C
 0 <= f_2_C_A
 0 <= src_2_A <= 1
 0 <= dst_2_A <= 1
 0 <= src_2_B <= 1
 0 <= dst_2_B <= 1
 0 <= src_2_C <= 1
 0 <= dst_2_C <= 1
 0 <= move_video_analytics <= 1
 0 <= stay_video_analytics <= 1
 0 <= move_telemetry <= 1
 0 <= stay_telemetry <= 1
 0 <= move_batch_job <= 1
Binaries
 x_video_analytics_A
 x_video_analytics_B
 x_video_analytics_C
 skip_video_analytics
 x_telemetry_A
 x_telemetry_B
 x_telemetry_C
 skip_telemetry
 x_batch_job_A
 x_batch_job_B
 x_batch_job_C
 skip_batch_job
 z_video_analytics_telemetry
 src_0_A
 dst_0_A
 src_0_B
 dst_0_B
 src_0_C
 dst_0_C
 z_video_analytics_batch_job
 src_1_A
 dst_1_A
 src_1_B
 dst_1_B
 src_1_C
 dst_1_C
 z_telemetry_video_analytics
 src_2_A
 dst_2_A
 src_2_B
 dst_2_B
 src_2_C
 dst_2_C
 move_video_analytics
 stay_video_analytics
 move_telemetry
 stay_telemetry
 move_batch_job
End
